units real

include parameters.lmp
include parse_model.lmp

variable types index 1 2
variable type_labels index "O" "H"
variable dz index 1.0

variable outFreq index ${nProd}
variable nEvery index ${atomEvery}
variable nRepeat equal floor(v_outFreq/v_nEvery)
variable first index 0
variable last index ${nProd}

# Read in Force Field
atom_style full
pair_style lj/cut/coul/long 12.0
kspace_style pppm 1e-3
bond_style harmonic 
angle_style harmonic
improper_style harmonic

if "${pol} == Drude" then &
    "variable label string ${pol}.${label}" &
    "variable FFLabel string ${pol}.${FFLabel}" 

if "${BC} == electrode" then &
    "variable label string ${label}.pot.${pot}"

include parse_biases_label.lmp
read_data ${DATADIR}/equil/data.${label}.eq
include ${FFDIR}ff.${FFLabel}.lmp

# Turn off Non-Coulomb interactions
if "${pol} == Drude" then &
    "pair_coeff  *  * lj/cut/coul/long  0.0  3.0 " &
    "pair_coeff  *  * thole 0.0" &
else &
    "pair_coeff * * 0.0 3.0"

bond_coeff * 0 0
angle_coeff * 0 0
improper_coeff * 0 0

thermo ${nEvery}

group TOTAL empty

label type_loop

group ATOMS_${type_labels} type ${types}
group TOTAL union TOTAL ATOMS_${type_labels}
compute ${type_labels}_chunk ATOMS_${type_labels} chunk/atom bin/1d z center ${dz}
fix rho_${type_labels} ATOMS_${type_labels} ave/chunk ${nEvery} ${nRepeat} ${outFreq} ${type_labels}_chunk density/mass &
    file ${DATADIR}/post/${type_labels}.rho.${label}.out

next types type_labels
jump SELF type_loop

compute all_chunk TOTAL chunk/atom bin/1d z lower ${dz}

fix rho_T TOTAL ave/chunk ${nEvery} ${nRepeat} ${outFreq} all_chunk density/mass &
    file ${DATADIR}/post/rho.${label}.out

rerun ${DATADIR}/prod/prod.${label}.lammpstrj first ${first} last ${last} dump x y z ix iy iz
