# =============================================================================
# =============================================================================
#
# NPT Equilibration of Liquid Box of Water Solution
# Written By: Amro Dodin
#
# =============================================================================
# =============================================================================

# =============================================================================
# Read in Configuration & Parameters
# =============================================================================

# Initialize Parameters
include parameters.lmp
include parse_model.lmp

# Read in Data From init Script
atom_style full
pair_style soft 3.0
bond_style harmonic 
angle_style harmonic
improper_style harmonic
dihedral_style fourier

if "${pol} == Drude" then &
    "variable label string ${pol}.${label}" &
    "variable FFLabel string ${pol}.${FFLabel}" 

if "${sym}==asym" then &
    "variable  label string asym.${label}" &
    "variable FFLabel string asym.${FFLabel}" 

if "${skipEquil}==False" then &
    "read_data ${DATADIR}data.${label}.init" &
else &
    "read_data ${DATADIR}data.${label}.eq nocoeff" &
    "bond_coeff * 0 0" &
    "angle_coeff * 0 0" &
    "improper_coeff * 0 0" 

if "(${BC} == electrode) || (${BC} == step_electrode)" then &
    "variable label string ${label}.pot.${pot}"

if "${pol} == ECC" then &
    "variable label string ${pol}.${ECC}.${label}" &
    "variable FFLabel string ${pol}.${FFLabel}"

log ${DATADIR}eq.${label}.log

# Read in Force Field
include ${FFDIR}ff.${FFLabel}.lmp

balance 1.2 shift z 10 1.0

#delete_bonds all multi 
neighbor 2.0 bin
neigh_modify delay 0

# Rebalances Load on processors to account for (e.g. slab vacuum region)
balance 1.0 shift z 10 1.1

# =============================================================================
# Set Up Groups
# =============================================================================

group waters type 1:${numWaterTypes}
group cations type $((v_numWaterTypes+1)):$((v_numWaterTypes+v_numCationTypes))
group anions type $((v_numWaterTypes+v_numCationTypes+1)):$((v_numWaterTypes+v_numCationTypes+v_numAnionTypes))
if "(${BC} == electrode) || (${BC} == step_electrode) || (${BC} == insulator)" then &
    "group electrodes type $((v_numWaterTypes+v_numCationTypes+v_numAnionTypes+1)):$((v_numWaterTypes+v_numCationTypes+v_numAnionTypes+v_numBCTypes))" &
    "region rbot block EDGE EDGE EDGE EDGE EDGE 0" &
    "region rtop block EDGE EDGE EDGE EDGE 0 EDGE" &
    "group allbot region rbot" &
    "group alltop region rtop" &
    "group bot intersect electrodes allbot" &
    "group top intersect electrodes alltop" &
else &
    "group electrodes empty"
group mobile subtract all electrodes

reset_mol_ids mobile single yes

if "${pol} == Drude" then &
    "jump SELF skipCharges"

if "${cationMolecular}==False" then &
    "set type ${cationType} charge ${qCation}"

if "${anionMolecular}==False" then &
    "set type ${anionType} charge -${qAnion}"


label skipCharges

if "${cationRigid}==True && ${anionRigid}==True" then &
    "group rigid_mol union waters cations anions" &
    "group simple empty" &
elif "${cationRigid}==True && ${anionRigid}==False" &
    "group rigid_mol union waters cations" &
    "group simple union anions" &
elif "${cationRigid}==False && ${anionRigid}==True" &
    "group rigid_mol union waters anions" &
    "group simple union cations" &
else &
    "group rigid_mol union waters" &
    "group simple union cations anions" 

if "${pol} == Drude" then &
    "group ATOMS type 1:${atomTypes}" &
    "group DRUDE type ${DrudeTypesLower}:${DrudeTypesUpper}"

# =============================================================================
# Set Up ECC scaling
# =============================================================================

if "${pol} == ECC" then &
    "variable charge atom v_ECC*q" &
    "set type ${anionType} charge v_charge" & 
    "set type ${cationType} charge v_charge" 

# =============================================================================
# Set Up Overall Integration Fixes
# =============================================================================


if "${BC} == wall" then &
    "change_box all boundary p p f" &
    "kspace_modify slab 3.0" &
    "fix wall all wall/lj126 zlo EDGE 0.1 ${ljRAu} 12.0 zhi EDGE 0.1 ${ljRAu} 12.0 units box" &
elif "(${BC} == electrode) || (${BC} == step_electrode)" &
    "change_box all boundary p p f" &
    "kspace_modify slab 3.0" &
    "fix conp bot electrode/conp -$((v_pot/2)) ${eta} couple top $((v_pot/2)) symm on"

variable thermo_spec string "step v_TTarget temp pe density ke fmax"

include parse_biases.lmp

# =============================================================================
# Set Up Outputs
# =============================================================================

variable TTarget equal 1

group OH type 1 2
compute oh_list OH property/local batom1 batom2
compute oh_bonds OH bond/local dist
compute oh_max OH reduce max c_oh_bonds
compute oh_which_max OH reduce max c_oh_list[1] c_oh_list[2] c_oh_bonds replace 1 3 replace 2 3

variable thermo_spec string "${thermo_spec} c_oh_which_max[*]"

thermo_style custom ${thermo_spec}
compute myTemp mobile temp
thermo_modify temp myTemp
thermo ${thermoEvery}

dump 1 all custom ${atomEvery} ${DATADIR}stab.${label}.lammpstrj id mol type q x y z vx vy vz fx fy fz ix iy iz
#dump 1 all custom 1 ${DATADIR}eq.${label}.lammpstrj id mol type q x y z vx vy vz fx fy fz ix iy iz
if "$((count(biased))) > 0" then &
    "dump 2 biased custom ${cvEvery} ${DATADIR}bias.stab.${label}.lammpstrj id mol type x y z"

if "${skipEquil}==True" then &
    "jump SELF production"

if "${pol} == Drude" then &
    "delete_bonds ATOMS multi" &
else &
    "delete_bonds all multi "
   
print "==============================================================="
print "==============================================================="
print "==============================================================="
print "Running Stabilization"
print "==============================================================="
print "==============================================================="
print "==============================================================="


label StabilizeLoop

print  "Starting Loop Iteration"
print  "Timestep: ${dtStabilize}"
print  "Threshold: ${FMaxStabilized}"


timestep ${dtStabilize}
next dtStabilize
velocity all zero linear
velocity all zero angular

if "${pol} == Drude" then &
    "fix DrudeDirect all drude/transform/direct"
fix rigidNVT rigid_mol rigid/nvt molecule temp 1 1 ${gtTStabilize} tparam 10 10 3
fix simpleNVT simple nvt temp 1 1 ${gtTStabilize} tloop 10 tchain 10
if "${pol} == Drude" then &
    "fix DrudeNVT DRUDE nvt temp 1 ${TD} ${gtTDStabilize}" &
    "fix DrudeInverse all drude/transform/inverse"

fix vel_rescale all temp/rescale ${stabVelRescaleEvery} ${stabVelRescaleTemp} ${stabVelRescaleTemp} ${stabVelRescaleMaxTemp} ${stabVelRescaleRatio}

variable f equal fmax

fix halter all halt ${nStabilizeBatch} v_f < ${FMaxStabilized} error continue
next FMaxStabilized
run ${nStabilizeMax} pre yes post no 
next nStabilizeMax

unfix halter

if "${pol} == Drude" then &
    "unfix DrudeDirect" &
    "unfix DrudeNVT" &
    "unfix DrudeInverse" &

unfix rigidNVT
unfix simpleNVT

unfix vel_rescale

jump SELF StabilizeLoop

undump 1

if "$((count(biased))) > 0" then &
    "undump 2" 

reset_timestep 0

variable TTarget equal ramp(1,$T)

# =============================================================================
# Run Heating
# =============================================================================

if "(${pol} == Drude) && (${thermostat} == 1)" then &
    "fix DrudeDirect all drude/transform/direct" &
elif "(${pol} == Drude) && (${thermostat} == 2)" &
    "comm_modify vel yes" &
    "fix LANG all langevin/drude ${T} ${gtTEquil} $S ${TD} ${gtTDEquil} $S" & 
elif "(${pol} != Drude) && (${thermostat} == 2)" &   
    "fix LANG all langevin 1 $T ${gtTEquil} $S"

if "${thermostat} == 1" then &
    "fix rigidNVT rigid_mol rigid/nvt molecule temp 1 $T ${gtTEquil} tparam 10 10 3" &
    "fix simpleNVT simple nvt temp 1 $T ${gtT} tloop 10 tchain 10" &
elif "${thermostat} == 2" &
    "fix rigidNVE rigid_mol rigid/nve molecule" &
    "fix simpleNVE simple nve"

if "(${pol} == Drude) && (${thermostat} == 1)" then &
    "fix DrudeNVT DRUDE nvt temp ${TD} ${TD} ${gtTDEquil}" &
    "fix DrudeInverse all drude/transform/inverse" &
elif "(${pol} == Drude) && (${thermostat} == 2)" &
    "fix DrudeNVE DRUDE nve"

#if "${pol} == Drude" then &
#    "fix DrudeDirect all drude/transform/direct"
#fix rigidNVT rigid_mol rigid/nvt molecule temp 1 $T ${gtTEquil} tparam 10 10 3
#fix simpleNVT simple nvt temp 1 $T ${gtT} tloop 10 tchain 10
#if "${pol} == Drude" then &
#    "fix DrudeNVT DRUDE nvt temp 1 ${TD} ${gtTDEquil}" &
#    "fix DrudeInverse all drude/transform/inverse"

print "==============================================================="
print "==============================================================="
print "==============================================================="
print "Running Heating"
print "==============================================================="
print "==============================================================="
print "==============================================================="

dump 1 all custom ${atomEvery} ${DATADIR}eq.${label}.lammpstrj id mol type q x y z vx vy vz fx fy fz ix iy iz
if "$((count(biased))) > 0" then &
    "dump 2 biased custom ${cvEvery} ${DATADIR}bias.eq.${label}.lammpstrj id mol type x y z"

timestep ${dtEquil}
reset_timestep 0
run ${nHeat} 


# =============================================================================
# Run Equilibration
# =============================================================================

if "(${pol} == Drude) && (${thermostat} == 1)" then &
    "unfix DrudeDirect" &
    "unfix DrudeNVT" &
    "unfix DrudeInverse" &
elif "(${pol} == Drude) && (${thermostat} == 2)" &
    "unfix DrudeNVE"

if "${thermostat} == 1" then &
    "unfix rigidNVT" &
    "unfix simpleNVT" &
elif "${thermostat} == 2" &
    "unfix LANG" &
    "unfix rigidNVE" &
    "unfix simpleNVE"

variable TTarget equal $T

timestep ${dt}

if "(${pol} == Drude) && (${thermostat} == 1)" then &
    "fix DrudeDirect all drude/transform/direct" &
elif "(${pol} == Drude) && (${thermostat} == 2)" &
    "comm_modify vel yes" &
    "fix LANG all langevin/drude $T ${gtTEquil} $S ${TD} ${gtTDEquil} $S" & 
elif "(${pol} != Drude) && (${thermostat} == 2)" &   
    "fix LANG all langevin $T $T ${gtTEquil} $S"

if "${thermostat}==1" then &
    "fix rigidNVT rigid_mol rigid/nvt molecule temp $T $T ${gtTEquil} tparam 10 10 3" &
    "fix simpleNVT simple nvt temp $T $T ${gtTEquil} tloop 10 tchain 10" &
elif "${thermostat} == 2" &
    "fix rigidNVE rigid_mol rigid/nve molecule" &
    "fix simpleNVE simple nve"

if "(${pol} == Drude) && (${thermostat} == 1)" then &
    "fix DrudeNVT DRUDE nvt temp ${TD} ${TD} ${gtTDEquil}" &
    "fix DrudeInverse all drude/transform/inverse" &
elif "(${pol} == Drude) && (${thermostat} == 2)" &
    "fix DrudeNVE DRUDE nve"

compute cz all chunk/atom bin/1d z center 0.5

print "==============================================================="
print "==============================================================="
print "==============================================================="
print "Running Equilibration"
print "==============================================================="
print "==============================================================="
print "==============================================================="

run ${nEquil} 

write_data ${DATADIR}data.${label}.eq pair ij

# =============================================================================
# Run Production
# =============================================================================

if "(${pol} == Drude) && (${thermostat} == 1)" then &
    "unfix DrudeDirect" &
    "unfix DrudeNVT" &
    "unfix DrudeInverse" &
elif "(${pol} == Drude) && (${thermostat} == 2)" &
    "unfix DrudeNVE"

if "${thermostat} == 1" then &
    "unfix rigidNVT" &
    "unfix simpleNVT" &
elif "${thermostat} == 2" &
    "unfix LANG" &
    "unfix rigidNVE" &
    "unfix simpleNVE"

label production

undump 1

if "$((count(biased))) > 0" then &
    "undump 2"

if "${skipProd}==True" then &
    quit

reset_timestep 0


log ${DATADIR}prod.${label}.log

if "${skipEquil}==True" then &
    "read_dump ${DATADIR}eq.${label}.lammpstrj ${nEquil} x y z vx vy vz q ix iy iz" &
    "reset_timestep 0"

variable TTarget equal $T

if "(${pol} == Drude) && (${thermostat} == 1)" then &
    "fix DrudeDirect all drude/transform/direct" &
elif "(${pol} == Drude) && (${thermostat} == 2)" &
    "comm_modify vel yes" &
    "fix LANG all langevin/drude $T ${gtT} $S ${TD} ${gtTD} $S" & 
elif "(${pol} != Drude) && (${thermostat} == 2)" &   
    "fix LANG all langevin $T $T ${gtT} $S"

if "${thermostat} == 1" then &
    "fix rigidNVT rigid_mol rigid/nvt molecule temp $T $T ${gtT} tparam 10 10 3" &
    "fix simpleNVT simple nvt temp $T $T ${gtT} tloop 10 tchain 10" &
elif "${thermostat} == 2" &
    "fix rigidNVE rigid_mol rigid/nve molecule" &
    "fix simpleNVE simple nve"

if "(${pol} == Drude) && (${thermostat} == 1)" then &
    "fix DrudeNVT DRUDE nvt temp ${TD} ${TD} ${gtTD}" &
    "fix DrudeInverse all drude/transform/inverse" &
elif "(${pol} == Drude) && (${thermostat} == 2)" &
    "fix DrudeNVE DRUDE nve"

#if "${pol} == Drude" then &
#    "fix DrudeDirect all drude/transform/direct"
#fix rigidNVT rigid_mol rigid/nvt molecule temp $T $T ${gtT} tparam 10 10 3
#fix simpleNVT simple nvt temp $T $T ${gtT} tloop 10 tchain 10
#if "${pol} == Drude" then &
#    "fix DrudeNVT DRUDE nvt temp ${TD} ${TD} ${gtTD}" &
#    "fix DrudeInverse all drude/transform/inverse"

dump 1 all custom ${atomEvery} ${DATADIR}prod.${label}.lammpstrj id mol type q x y z vx vy vz ix iy iz
if "$((count(biased))) > 0" then &
    "dump 2 biased custom ${cvEvery} ${DATADIR}bias.prod.${label}.lammpstrj id mol type x y z"

print "==============================================================="
print "==============================================================="
print "==============================================================="
print "Running Production"
print "==============================================================="
print "==============================================================="
print "==============================================================="

run ${nProd}

write_data ${DATADIR}data.${label}.prod pair ij