# =============================================================================
# =============================================================================
#
# NPT Equilibration of Liquid Box of Water Solution
# Written By: Amro Dodin
#
# =============================================================================
# =============================================================================

# =============================================================================
# Read in Configuration & Parameters
# =============================================================================

# Initialize Parameters
include parameters.lmp
include parse_model.lmp

# Read in Data From init Script
atom_style full
pair_style soft 3.0
bond_style harmonic 
angle_style harmonic
improper_style harmonic
read_data ${DATADIR}data.${label}.init

# Read in Force Field
include ${FFDIR}ff.${label}.lmp
delete_bonds all multi 
neighbor 2.0 bin
neigh_modify delay 0

# =============================================================================
# Set Up Groups
# =============================================================================

group waters type 1:${numWaterTypes}
group cations type $((v_numWaterTypes+1)):$((v_numWaterTypes+v_numCationTypes))
group anions type $((v_numWaterTypes+v_numCationTypes+1)):$((v_numWaterTypes+v_numCationTypes+v_numAnionTypes))
group mobile type 1:$((v_numWaterTypes+v_numCationTypes+v_numAnionTypes))
if "${BC} == electrode" then &
    "group electrodes type $((v_numWaterTypes+v_numCationTypes+v_numAnionTypes+1)):$((v_numWaterTypes+v_numCationTypes+v_numAnionTypes+v_numBCTypes))" &
    "region rbot block EDGE EDGE EDGE EDGE EDGE 0" &
    "region rtop block EDGE EDGE EDGE EDGE 0 EDGE" &
    "group allbot region rbot" &
    "group alltop region rtop" &
    "group bot intersect electrodes allbot" &
    "group top intersect electrodes alltop" 


if "${cationMolecular}==True && ${anionMolecular}==True" then &
    "group molecular union waters cations anions" &
    "group simple empty" &
elif "${cationMolecular}==True && ${anionMolecular}==False" &
    "group molecular union waters cations" &
    "group simple union anions" &
    "set type ${anionType} charge ${qAnion}" &
elif "${cationMolecular}==False && ${anionMolecular}==True" &
    "group molecular union waters anions" &
    "group simple union cations" &
    "set type ${vationType} charge ${qCation}" &
else &
    "group molecular union waters" &
    "group simple union cations anions" &
    "set type ${anionType} charge -${qAnion}" &
    "set type ${cationType} charge ${qCation}" 

# =============================================================================
# Set Up Outputs
# =============================================================================

variable TTarget equal ramp(1,$T)

thermo_style custom step v_TTarget temp pe density ke
compute myTemp mobile temp
thermo_modify temp myTemp
thermo ${thermoEvery}

dump 1 all custom ${atomEvery} ${DATADIR}eq.${label}.lammpstrj id mol type q x y z 

# =============================================================================
# Set Up Integration Fixes
# =============================================================================

timestep ${dt}

if "${BC} == wall" then &
    "change_box all boundary p p f" &
    "kspace_modify slab 3.0" &
    "fix wall all wall/lj126 zlo EDGE 0.1 ${ljRAu} 10.0 zhi EDGE 0.1 ${ljRAu} 10.0 units box" &
elif "${BC} == electrode" &
    "change_box all boundary p p f" &
    "kspace_modify slab 3.0" &
    "fix conp bot electrode/conp -$((v_pot/2)) ${eta} couple top $((v_pot/2)) symm on"

fix rigidNVT molecular rigid/nvt/small molecule temp 1 $T ${gtT} tparam 10 10 3
fix simpleNVT simple nvt temp 1 $T ${gtT} tloop 10 tchain 10

run ${nHeat}

unfix rigidNVT
unfix simpleNVT
variable TTarget equal $T

fix rigidNVT molecular rigid/nvt/small molecule temp $T $T ${gtT} tparam 10 10 3
fix simpleNVT simple nvt temp $T $T ${gtT} tloop 10 tchain 10

compute cz all chunk/atom bin/1d z center 0.5

run ${nEquil}

write_data ${DATADIR}data.${label}.eq pair ij
