mass * 1.0
pair_style soft 6.0
pair_coeff * * 6.0

bond_style harmonic
bond_coeff 1 1e9 0.9572
bond_coeff 2 1e9 0.24034
bond_coeff 3 1e9 1.28

angle_style harmonic
angle_coeff 1 1e9 104.52
angle_coeff 2 1e9  52.26
angle_coeff 3 1e9 120.00

improper_style harmonic 
improper_coeff 1 1e9 0