# =============================================================================
# =============================================================================
#
# Creates a Dilute Initial Water Ion Structure (PBC) & Relax Overlap
# Written By: Amro Dodin
#
# =============================================================================
# =============================================================================

include parameters.lmp
include parse_model.lmp

log ${DATADIR}init.${label}.log

# =============================================================================
# Create Simulation Box
# =============================================================================

boundary p p p
units real
lattice sc $a

atom_style full
region box block -$L $L -$L $L -$D $D units lattice
create_box ${atomTypes} box bond/types ${bondTypes} angle/types ${angleTypes} &
    dihedral/types ${dihedralTypes} improper/types ${improperTypes} &
    extra/bond/per/atom ${bondsPerAtom} extra/angle/per/atom ${anglesPerAtom} &
    extra/dihedral/per/atom ${dihedralsPerAtom} &
    extra/improper/per/atom ${impropersPerAtom} &
    extra/special/per/atom ${specialsPerAtom}

# =============================================================================
# Randomly Place Water & Ions
# =============================================================================

# Create Water
region water_box block EDGE EDGE EDGE EDGE -$L $L units lattice
create_atoms 0 region water_box mol h2o $S

# Create Cations
if  "${cationMolecular} == True" then &
    "create_atoms 0 random ${numCations} $S water_box mol cation $S units lattice" &
else &
    "create_atoms ${cationType} random ${numCations} $S water_box overlap ${cationOverlap} maxtry 100000 units lattice" &

# Create Anions
if  "${anionMolecular} == True" then &
    "create_atoms 0 random ${numAnions} $S water_box mol anion $S units lattice" &
else &
    "create_atoms ${anionType} random ${numAnions} $S water_box overlap ${anionOverlap} maxtry 1000000 units lattice" &

# =============================================================================
# Relax Overlap
# =============================================================================
#mass * 1.0

# Import Minimization Force Field
include ${FFDIR}ff.min.${FFLabel}.lmp

# Add Boundary Conditions
if "${BC} == wall" then &
    "change_box all boundary p p f" &
    "fix wall all wall/lj126 zlo EDGE 0.1 ${ljRAu} 10.0 zhi EDGE 0.1 ${ljRAu} 10.0 units box" &
elif "${BC} == electrode" &
    "# Update Lattice" &
    "lattice fcc ${aAu}" &
    "# Create On Lattice Electrode Regions" &
    "region rleft block EDGE EDGE EDGE EDGE -${Ezext} -${Ezint} units lattice" &
    "region rright block EDGE EDGE EDGE EDGE ${Ezint} ${Ezext} units lattice" &
    "create_atoms ${BCType} region rleft" &
    "create_atoms ${BCType} region rright" &
    "# Displace Electrodes to target Locations" &
    "group eleft region rleft" &
    "group eright region rright" &
    "group electrodes union eleft eright" &
    "displace_atoms eleft move 0 0 ${Ezdisp} units lattice" &
    "displace_atoms eright move 0 0 -${Ezdisp} units lattice" &
    "fix freeze electrodes setforce 0 0 0" &
    "change_box all z final -${Dint} ${Dint}"


thermo_style custom step pe density fmax fnorm
thermo 10

dump 1 all atom 1 ${DATADIR}init.${label}.lammpstrj

minimize 0 0 1000 10000

# =============================================================================
# Save Data Output
# =============================================================================

write_data ${DATADIR}data.${label}.init
