# LAMMPS Force Field File
# Generated by ForceField.py

# FF References:
#      ODw: https://doi.org/10.1016/j.cplett.2005.10.135
#      HDw: https://doi.org/10.1016/j.cplett.2005.10.135
#      MDw: https://doi.org/10.1016/j.cplett.2005.10.135
#      polNa: https://doi.org/10.1016/j.jcis.2007.09.097.
#      CC: https://doi.org/10.1016/j.jcis.2007.09.097
#      OC: https://doi.org/10.1016/j.jcis.2007.09.098

fix drude all drude C N N C C C D D D D 
pair_style hybrid/overlay lj/cut/coul/long 12.0 thole 2.6 12.0
kspace_style pppm 1.0e-3

# Masses:
mass  1 15.200 # ODwC
mass  2 1.000 # HDw
mass  3 0.001 # MDw
mass  4 22.200 # polNaC
mass  5 11.200 # CCC
mass  6 15.200 # OCC
mass  7 0.800 # ODwD
mass  8 0.800 # polNaD
mass  9 0.800 # CCD
mass 10 0.800 # OCD

# Pair Potential Coefficients
pair_coeff  1  1 lj/cut/coul/long  0.18985  3.18395 # ODwC-ODwC
pair_coeff  1  2 lj/cut/coul/long  0.00000  1.59197 # ODwC-HDw
pair_coeff  1  3 lj/cut/coul/long  0.00000  1.59197 # ODwC-MDw
pair_coeff  1  4 lj/cut/coul/long  0.13292  3.02997 # ODwC-polNaC
pair_coeff  1  5 lj/cut/coul/long  0.09737  3.15477 # ODwC-CCC
pair_coeff  1  6 lj/cut/coul/long  0.16295  3.36857 # ODwC-OCC
pair_coeff  1  7 lj/cut/coul/long  0.01055  3.18395 # ODwC-ODwS
pair_coeff  1  8 lj/cut/coul/long  0.00905  3.36857 # ODwC-OCS
pair_coeff  1  9 lj/cut/coul/long  0.00735  3.15477 # ODwC-CCS
pair_coeff  1 10 lj/cut/coul/long  0.00505  3.02997 # ODwC-polNaS
pair_coeff  2  2 lj/cut/coul/long  0.00000  0.00000 # HDw-HDw
pair_coeff  2  3 lj/cut/coul/long  0.00000  0.00000 # HDw-MDw
pair_coeff  2  4 lj/cut/coul/long  0.00000  1.43800 # HDw-polNaC
pair_coeff  2  5 lj/cut/coul/long  0.00000  1.56280 # HDw-CCC
pair_coeff  2  6 lj/cut/coul/long  0.00000  1.77660 # HDw-OCC
pair_coeff  2  7 lj/cut/coul/long  0.00000  1.59197 # HDw-ODwS
pair_coeff  2  8 lj/cut/coul/long  0.00000  1.77660 # HDw-OCS
pair_coeff  2  9 lj/cut/coul/long  0.00000  1.56280 # HDw-CCS
pair_coeff  2 10 lj/cut/coul/long  0.00000  1.43800 # HDw-polNaS
pair_coeff  3  3 lj/cut/coul/long  0.00000  0.00000 # MDw-MDw
pair_coeff  3  4 lj/cut/coul/long  0.00000  1.43800 # MDw-polNaC
pair_coeff  3  5 lj/cut/coul/long  0.00000  1.56280 # MDw-CCC
pair_coeff  3  6 lj/cut/coul/long  0.00000  1.77660 # MDw-OCC
pair_coeff  3  7 lj/cut/coul/long  0.00000  1.59197 # MDw-ODwS
pair_coeff  3  8 lj/cut/coul/long  0.00000  1.77660 # MDw-OCS
pair_coeff  3  9 lj/cut/coul/long  0.00000  1.56280 # MDw-CCS
pair_coeff  3 10 lj/cut/coul/long  0.00000  1.43800 # MDw-polNaS
pair_coeff  4  4 lj/cut/coul/long  0.09304  2.87600 # polNaC-polNaC
pair_coeff  4  5 lj/cut/coul/long  0.06820  3.00080 # polNaC-CCC
pair_coeff  4  6 lj/cut/coul/long  0.11409  3.21460 # polNaC-OCC
pair_coeff  4  7 lj/cut/coul/long  0.00726  3.02997 # polNaC-ODwS
pair_coeff  4  8 lj/cut/coul/long  0.00623  3.21460 # polNaC-OCS
pair_coeff  4  9 lj/cut/coul/long  0.00506  3.00080 # polNaC-CCS
pair_coeff  4 10 lj/cut/coul/long  0.00348  2.87600 # polNaC-polNaS
pair_coeff  5  5 lj/cut/coul/long  0.04992  3.12560 # CCC-CCC
pair_coeff  5  6 lj/cut/coul/long  0.08357  3.33940 # CCC-OCC
pair_coeff  5  7 lj/cut/coul/long  0.00551  3.15477 # CCC-ODwS
pair_coeff  5  8 lj/cut/coul/long  0.00473  3.33940 # CCC-OCS
pair_coeff  5  9 lj/cut/coul/long  0.00384  3.12560 # CCC-CCS
pair_coeff  5 10 lj/cut/coul/long  0.00264  3.00080 # CCC-polNaS
pair_coeff  6  6 lj/cut/coul/long  0.13986  3.55320 # OCC-OCC
pair_coeff  6  7 lj/cut/coul/long  0.00905  3.36857 # OCC-ODwS
pair_coeff  6  8 lj/cut/coul/long  0.00777  3.55320 # OCC-OCS
pair_coeff  6  9 lj/cut/coul/long  0.00631  3.33940 # OCC-CCS
pair_coeff  6 10 lj/cut/coul/long  0.00434  3.21460 # OCC-polNaS
pair_coeff  7  7 lj/cut/coul/long  0.00000  3.18395 # ODwS-ODwS
pair_coeff  7  8 lj/cut/coul/long  0.00000  3.36857 # ODwS-OCS
pair_coeff  7  9 lj/cut/coul/long  0.00000  3.15477 # ODwS-CCS
pair_coeff  7 10 lj/cut/coul/long  0.00000  3.02997 # ODwS-polNaS
pair_coeff  8  8 lj/cut/coul/long  0.00000  3.55320 # OCS-OCS
pair_coeff  8  9 lj/cut/coul/long  0.00000  3.33940 # OCS-CCS
pair_coeff  8 10 lj/cut/coul/long  0.00000  3.21460 # OCS-polNaS
pair_coeff  9  9 lj/cut/coul/long  0.00000  3.12560 # CCS-CCS
pair_coeff  9 10 lj/cut/coul/long  0.00000  3.00080 # CCS-polNaS
pair_coeff 10 10 lj/cut/coul/long  0.00000  2.87600 # polNaS-polNaS

# Thole Screening
pair_coeff  1  1 thole  0.97800 # ODwC-ODwC
pair_coeff  1  4 thole  0.49447 # ODwC-polNaC
pair_coeff  1  5 thole  0.77618 # ODwC-CCC
pair_coeff  1  6 thole  0.65150 # ODwC-OCC
pair_coeff  1  7 thole  0.97800 # ODwC-ODwS
pair_coeff  1  8 thole  0.65150 # ODwC-OCS
pair_coeff  1  9 thole  0.77618 # ODwC-CCS
pair_coeff  1 10 thole  0.49447 # ODwC-polNaS
pair_coeff  4  4 thole  0.25000 # polNaC-polNaC
pair_coeff  4  5 thole  0.39243 # polNaC-CCC
pair_coeff  4  6 thole  0.32939 # polNaC-OCC
pair_coeff  4  7 thole  0.49447 # polNaC-ODwS
pair_coeff  4  8 thole  0.32939 # polNaC-OCS
pair_coeff  4  9 thole  0.39243 # polNaC-CCS
pair_coeff  4 10 thole  0.25000 # polNaC-polNaS
pair_coeff  5  5 thole  0.61600 # CCC-CCC
pair_coeff  5  6 thole  0.51705 # CCC-OCC
pair_coeff  5  7 thole  0.77618 # CCC-ODwS
pair_coeff  5  8 thole  0.51705 # CCC-OCS
pair_coeff  5  9 thole  0.61600 # CCC-CCS
pair_coeff  5 10 thole  0.39243 # CCC-polNaS
pair_coeff  6  6 thole  0.43400 # OCC-OCC
pair_coeff  6  7 thole  0.65150 # OCC-ODwS
pair_coeff  6  8 thole  0.43400 # OCC-OCS
pair_coeff  6  9 thole  0.51705 # OCC-CCS
pair_coeff  6 10 thole  0.32939 # OCC-polNaS
pair_coeff  7  7 thole  0.97800 # ODwS-ODwS
pair_coeff  7  8 thole  0.65150 # ODwS-OCS
pair_coeff  7  9 thole  0.77618 # ODwS-CCS
pair_coeff  7 10 thole  0.49447 # ODwS-polNaS
pair_coeff  8  8 thole  0.43400 # OCS-OCS
pair_coeff  8  9 thole  0.51705 # OCS-CCS
pair_coeff  8 10 thole  0.32939 # OCS-polNaS
pair_coeff  9  9 thole  0.61600 # CCS-CCS
pair_coeff  9 10 thole  0.39243 # CCS-polNaS
pair_coeff 10 10 thole  0.25000 # polNaS-polNaS
