# LAMMPS Force Field File
# Generated by ForceField.py

# FF References:
#      ODw: https://doi.org/10.1016/j.cplett.2005.10.135
#      HDw: https://doi.org/10.1016/j.cplett.2005.10.135
#      MDw: https://doi.org/10.1016/j.cplett.2005.10.135
#      GdmN: nan
#      GdmC: nan
#      GdmH: nan
#      CC: https://doi.org/10.1016/j.jcis.2007.09.097
#      OC: https://doi.org/10.1016/j.jcis.2007.09.097

fix drude all drude C N N N N N C C D D D 
pair_style hybrid/overlay lj/cut/coul/long 12.0 thole 2.6 12.0
kspace_style pppm 1.0e-5

# Masses:
mass  1 15.200 # ODwC
mass  2 1.000 # HDw
mass  3 0.001 # MDw
mass  4 14.000 # GdmN
mass  5 12.000 # GdmC
mass  6 1.000 # GdmH
mass  7 11.200 # CCC
mass  8 15.200 # OCC
mass  9 0.800 # ODwD
mass 10 0.800 # CCD
mass 11 0.800 # OCD

# Pair Potential Coefficients
pair_coeff  1  1 lj/cut/coul/long  0.18985  3.18395 # ODwC-ODwC
pair_coeff  1  2 lj/cut/coul/long  0.00000  1.59197 # ODwC-HDw
pair_coeff  1  3 lj/cut/coul/long  0.00000  1.59197 # ODwC-MDw
pair_coeff  1  4 lj/cut/coul/long  0.17990  3.21697 # ODwC-GdmN
pair_coeff  1  5 lj/cut/coul/long  0.12795  3.29183 # ODwC-GdmC
pair_coeff  1  6 lj/cut/coul/long  0.05467  2.12652 # ODwC-GdmH
pair_coeff  1  7 lj/cut/coul/long  0.09737  3.15477 # ODwC-CCC
pair_coeff  1  8 lj/cut/coul/long  0.16295  3.36857 # ODwC-OCC
pair_coeff  1  9 lj/cut/coul/long  0.01055  3.18395 # ODwC-ODwS
pair_coeff  1 10 lj/cut/coul/long  0.00735  3.15477 # ODwC-CCS
pair_coeff  1 11 lj/cut/coul/long  0.00905  3.36857 # ODwC-OCS
pair_coeff  2  2 lj/cut/coul/long  0.00000  0.00000 # HDw-HDw
pair_coeff  2  3 lj/cut/coul/long  0.00000  0.00000 # HDw-MDw
pair_coeff  2  4 lj/cut/coul/long  0.00000  1.62500 # HDw-GdmN
pair_coeff  2  5 lj/cut/coul/long  0.00000  1.69985 # HDw-GdmC
pair_coeff  2  6 lj/cut/coul/long  0.00000  0.53455 # HDw-GdmH
pair_coeff  2  7 lj/cut/coul/long  0.00000  1.56280 # HDw-CCC
pair_coeff  2  8 lj/cut/coul/long  0.00000  1.77660 # HDw-OCC
pair_coeff  2  9 lj/cut/coul/long  0.00000  1.59197 # HDw-ODwS
pair_coeff  2 10 lj/cut/coul/long  0.00000  1.56280 # HDw-CCS
pair_coeff  2 11 lj/cut/coul/long  0.00000  1.77660 # HDw-OCS
pair_coeff  3  3 lj/cut/coul/long  0.00000  0.00000 # MDw-MDw
pair_coeff  3  4 lj/cut/coul/long  0.00000  1.62500 # MDw-GdmN
pair_coeff  3  5 lj/cut/coul/long  0.00000  1.69985 # MDw-GdmC
pair_coeff  3  6 lj/cut/coul/long  0.00000  0.53455 # MDw-GdmH
pair_coeff  3  7 lj/cut/coul/long  0.00000  1.56280 # MDw-CCC
pair_coeff  3  8 lj/cut/coul/long  0.00000  1.77660 # MDw-OCC
pair_coeff  3  9 lj/cut/coul/long  0.00000  1.59197 # MDw-ODwS
pair_coeff  3 10 lj/cut/coul/long  0.00000  1.56280 # MDw-CCS
pair_coeff  3 11 lj/cut/coul/long  0.00000  1.77660 # MDw-OCS
pair_coeff  4  4 lj/cut/coul/long  0.17000  3.25000 # GdmN-GdmN
pair_coeff  4  5 lj/cut/coul/long  0.12091  3.32485 # GdmN-GdmC
pair_coeff  4  6 lj/cut/coul/long  0.05166  2.15955 # GdmN-GdmH
pair_coeff  4  7 lj/cut/coul/long  0.09236  3.18780 # GdmN-CCC
pair_coeff  4  8 lj/cut/coul/long  0.15441  3.40160 # GdmN-OCC
pair_coeff  4  9 lj/cut/coul/long  0.00947  3.21697 # GdmN-ODwS
pair_coeff  4 10 lj/cut/coul/long  0.00660  3.18780 # GdmN-CCS
pair_coeff  4 11 lj/cut/coul/long  0.00813  3.40160 # GdmN-OCS
pair_coeff  5  5 lj/cut/coul/long  0.08600  3.39970 # GdmC-GdmC
pair_coeff  5  6 lj/cut/coul/long  0.03675  2.23440 # GdmC-GdmH
pair_coeff  5  7 lj/cut/coul/long  0.06569  3.26265 # GdmC-CCC
pair_coeff  5  8 lj/cut/coul/long  0.10982  3.47645 # GdmC-OCC
pair_coeff  5  9 lj/cut/coul/long  0.00673  3.29183 # GdmC-ODwS
pair_coeff  5 10 lj/cut/coul/long  0.00469  3.26265 # GdmC-CCS
pair_coeff  5 11 lj/cut/coul/long  0.00578  3.47645 # GdmC-OCS
pair_coeff  6  6 lj/cut/coul/long  0.01570  1.06910 # GdmH-GdmH
pair_coeff  6  7 lj/cut/coul/long  0.02807  2.09735 # GdmH-CCC
pair_coeff  6  8 lj/cut/coul/long  0.04692  2.31115 # GdmH-OCC
pair_coeff  6  9 lj/cut/coul/long  0.00288  2.12652 # GdmH-ODwS
pair_coeff  6 10 lj/cut/coul/long  0.00200  2.09735 # GdmH-CCS
pair_coeff  6 11 lj/cut/coul/long  0.00247  2.31115 # GdmH-OCS
pair_coeff  7  7 lj/cut/coul/long  0.04992  3.12560 # CCC-CCC
pair_coeff  7  8 lj/cut/coul/long  0.08357  3.33940 # CCC-OCC
pair_coeff  7  9 lj/cut/coul/long  0.00551  3.15477 # CCC-ODwS
pair_coeff  7 10 lj/cut/coul/long  0.00384  3.12560 # CCC-CCS
pair_coeff  7 11 lj/cut/coul/long  0.00473  3.33940 # CCC-OCS
pair_coeff  8  8 lj/cut/coul/long  0.13986  3.55320 # OCC-OCC
pair_coeff  8  9 lj/cut/coul/long  0.00905  3.36857 # OCC-ODwS
pair_coeff  8 10 lj/cut/coul/long  0.00631  3.33940 # OCC-CCS
pair_coeff  8 11 lj/cut/coul/long  0.00777  3.55320 # OCC-OCS
pair_coeff  9  9 lj/cut/coul/long  0.00000  3.18395 # ODwS-ODwS
pair_coeff  9 10 lj/cut/coul/long  0.00000  3.15477 # ODwS-CCS
pair_coeff  9 11 lj/cut/coul/long  0.00000  3.36857 # ODwS-OCS
pair_coeff 10 10 lj/cut/coul/long  0.00000  3.12560 # CCS-CCS
pair_coeff 10 11 lj/cut/coul/long  0.00000  3.33940 # CCS-OCS
pair_coeff 11 11 lj/cut/coul/long  0.00000  3.55320 # OCS-OCS

# Thole Screening
pair_coeff  1  1 thole  0.97800 # ODwC-ODwC
pair_coeff  1  7 thole  0.77618 # ODwC-CCC
pair_coeff  1  8 thole  0.65150 # ODwC-OCC
pair_coeff  1  9 thole  0.97800 # ODwC-ODwS
pair_coeff  1 10 thole  0.77618 # ODwC-CCS
pair_coeff  1 11 thole  0.65150 # ODwC-OCS
pair_coeff  7  7 thole  0.61600 # CCC-CCC
pair_coeff  7  8 thole  0.51705 # CCC-OCC
pair_coeff  7  9 thole  0.77618 # CCC-ODwS
pair_coeff  7 10 thole  0.61600 # CCC-CCS
pair_coeff  7 11 thole  0.51705 # CCC-OCS
pair_coeff  8  8 thole  0.43400 # OCC-OCC
pair_coeff  8  9 thole  0.65150 # OCC-ODwS
pair_coeff  8 10 thole  0.51705 # OCC-CCS
pair_coeff  8 11 thole  0.43400 # OCC-OCS
pair_coeff  9  9 thole  0.97800 # ODwS-ODwS
pair_coeff  9 10 thole  0.77618 # ODwS-CCS
pair_coeff  9 11 thole  0.65150 # ODwS-OCS
pair_coeff 10 10 thole  0.61600 # CCS-CCS
pair_coeff 10 11 thole  0.51705 # CCS-OCS
pair_coeff 11 11 thole  0.43400 # OCS-OCS
