# LAMMPS Force Field File
# Generated by ForceField.py

# FF References:
#      OT4P: https://doi.org/10.1063/1.1683075
#      HT4P: https://doi.org/10.1063/1.1683075
#      MT4P: https://doi.org/10.1063/1.1683075
#      Na: https://pubs.acs.org/doi/10.1021/jp980642x
#      CC: https://doi.org/10.1016/j.jcis.2007.09.097
#      OC: https://doi.org/10.1016/j.jcis.2007.09.098
#      Au: nan

pair_style lj/cut/coul/long 12.0
kspace_style pppm 1.0e-3

# Masses:
mass  1 16.000 # OT4P
mass  2 1.000 # HT4P
mass  3 0.001 # MT4P
mass  4 23.000 # Na
mass  5 12.000 # CC
mass  6 16.000 # OC
mass  7 197.000 # Au

# Pair Potential Coefficients
pair_coeff  1  1   0.16275  3.16435 # OT4P-OT4P
pair_coeff  1  2   0.00000  1.58218 # OT4P-HT4P
pair_coeff  1  3   0.00000  1.58218 # OT4P-MT4P
pair_coeff  1  4   0.14244  3.02018 # OT4P-Na
pair_coeff  1  5   0.09682  3.14498 # OT4P-CC
pair_coeff  1  6   0.15903  3.35878 # OT4P-OC
pair_coeff  1  7   0.12757  3.16435 # OT4P-Au
pair_coeff  2  2   0.00000  0.00000 # HT4P-HT4P
pair_coeff  2  3   0.00000  0.00000 # HT4P-MT4P
pair_coeff  2  4   0.00000  1.43800 # HT4P-Na
pair_coeff  2  5   0.00000  1.56280 # HT4P-CC
pair_coeff  2  6   0.00000  1.77660 # HT4P-OC
pair_coeff  2  7   0.00000  1.58218 # HT4P-Au
pair_coeff  3  3   0.00000  0.00000 # MT4P-MT4P
pair_coeff  3  4   0.00000  1.43800 # MT4P-Na
pair_coeff  3  5   0.00000  1.56280 # MT4P-CC
pair_coeff  3  6   0.00000  1.77660 # MT4P-OC
pair_coeff  3  7   0.00000  1.58218 # MT4P-Au
pair_coeff  4  4   0.12466  2.87600 # Na-Na
pair_coeff  4  5   0.08474  3.00080 # Na-CC
pair_coeff  4  6   0.13919  3.21460 # Na-OC
pair_coeff  4  7   0.11165  3.02018 # Na-Au
pair_coeff  5  5   0.05760  3.12560 # CC-CC
pair_coeff  5  6   0.09461  3.33940 # CC-OC
pair_coeff  5  7   0.07589  3.14498 # CC-Au
pair_coeff  6  6   0.15540  3.55320 # OC-OC
pair_coeff  6  7   0.12466  3.35878 # OC-Au
pair_coeff  7  7   0.10000  3.16435 # Au-Au

