# LAMMPS Force Field File
# Generated by ForceField.py

# FF References:
#      OT4P: https://doi.org/10.1063/1.1683075
#      HT4P: https://doi.org/10.1063/1.1683075
#      MT4P: https://doi.org/10.1063/1.1683075
#      GdmN: nan
#      GdmC: nan
#      GdmH: nan
#      Cl: https://pubs.acs.org/doi/10.1021/jp980642x

pair_style lj/cut/coul/long 12.0
kspace_style pppm 1.0e-5

# Masses:
mass  1 16.000 # OT4P
mass  2 1.000 # HT4P
mass  3 0.001 # MT4P
mass  4 14.000 # GdmN
mass  5 12.000 # GdmC
mass  6 1.000 # GdmH
mass  7 35.000 # Cl

# Pair Potential Coefficients
pair_coeff  1  1   0.16275  3.16435 # OT4P-OT4P
pair_coeff  1  2   0.00000  1.58218 # OT4P-HT4P
pair_coeff  1  3   0.00000  1.58218 # OT4P-MT4P
pair_coeff  1  4   0.16634  3.20718 # OT4P-GdmN
pair_coeff  1  5   0.11831  3.28202 # OT4P-GdmC
pair_coeff  1  6   0.05055  2.11673 # OT4P-GdmH
pair_coeff  1  7   0.14244  3.47468 # OT4P-Cl
pair_coeff  2  2   0.00000  0.00000 # HT4P-HT4P
pair_coeff  2  3   0.00000  0.00000 # HT4P-MT4P
pair_coeff  2  4   0.00000  1.62500 # HT4P-GdmN
pair_coeff  2  5   0.00000  1.69985 # HT4P-GdmC
pair_coeff  2  6   0.00000  0.53455 # HT4P-GdmH
pair_coeff  2  7   0.00000  1.89250 # HT4P-Cl
pair_coeff  3  3   0.00000  0.00000 # MT4P-MT4P
pair_coeff  3  4   0.00000  1.62500 # MT4P-GdmN
pair_coeff  3  5   0.00000  1.69985 # MT4P-GdmC
pair_coeff  3  6   0.00000  0.53455 # MT4P-GdmH
pair_coeff  3  7   0.00000  1.89250 # MT4P-Cl
pair_coeff  4  4   0.17000  3.25000 # GdmN-GdmN
pair_coeff  4  5   0.12091  3.32485 # GdmN-GdmC
pair_coeff  4  6   0.05166  2.15955 # GdmN-GdmH
pair_coeff  4  7   0.14558  3.51750 # GdmN-Cl
pair_coeff  5  5   0.08600  3.39970 # GdmC-GdmC
pair_coeff  5  6   0.03675  2.23440 # GdmC-GdmH
pair_coeff  5  7   0.10354  3.59235 # GdmC-Cl
pair_coeff  6  6   0.01570  1.06910 # GdmH-GdmH
pair_coeff  6  7   0.04424  2.42705 # GdmH-Cl
pair_coeff  7  7   0.12466  3.78500 # Cl-Cl

