# LAMMPS Force Field File
# Generated by ForceField.py


mass * 1

pair_style soft 5.0
pair_coeff * * 5.0

bond_style harmonic
bond_coeff      1 1e5  0.9572
bond_coeff      2 1e5 0.24
bond_coeff      3 1e5  1.339
bond_coeff      4 1e5  1.0121

angle_style harmonic
angle_coeff     1 1e5 104.52 # from tip4p documentation
angle_coeff     2 1e5 52.26
angle_coeff     3 1e5 120.0
angle_coeff     4 1e5 122.5
angle_coeff     5 1e5 115.0

dihedral_style fourier
dihedral_coeff  1 1 1e5 2 180.0

improper_style harmonic 
improper_coeff 1 1e5 0

