# LAMMPS Force Field File
# Generated by ForceField.py

# FF References:
#      OT4P: https://doi.org/10.1063/1.1683075
#      HT4P: https://doi.org/10.1063/1.1683075
#      MT4P: https://doi.org/10.1063/1.1683075
#      Na: https://pubs.acs.org/doi/10.1021/jp980642x
#      CC: https://doi.org/10.1016/j.jcis.2007.09.097
#      OC: https://doi.org/10.1016/j.jcis.2007.09.098

mass * 1

pair_style soft 5.0
pair_coeff * * 5.0

bond_style harmonic
bond_coeff 1 1e5 0.9572
bond_coeff 2 1e5 0.24034
bond_coeff 3 1e5 1.28

angle_style harmonic
angle_coeff 1 1e5 104.52
angle_coeff 2 1e5 52.26
angle_coeff 3 1e5 120

improper_style harmonic 
improper_coeff 1 1e5 0
improper_coeff 2 1e5 0
