mass * 1.0
pair_style soft 5.0
pair_coeff * * 5.0

bond_style harmonic
bond_coeff 1 1e5 0.9572
bond_coeff 2 1e5 0.15

angle_style harmonic
angle_coeff 1 1e5 104.52
angle_coeff 2 1e5  52.26

improper_style harmonic 
improper_coeff 1 1e5 0