# LAMMPS Force Field File
# Generated by ForceField.py

mass * 1

pair_style soft 5.0
pair_coeff * * 5.0

bond_style harmonic
bond_coeff 1 1e5 0.9572
bond_coeff 2 1e5 0.24034
bond_coeff 3 1e5 1.28

angle_style harmonic
angle_coeff 1 1e5 104.52
angle_coeff 2 1e5 52.26
angle_coeff 3 1e5 120

improper_style harmonic 
improper_coeff 1 1e5 0
improper_coeff 2 1e5 0
